s = array1d(1..400, [6, 0, 17, 13, 0, 3, 0, 9, 0, 5, 0, 0, 8, 10, 19, 0, 0, 4, 16, 0, 15, 0, 0, 2, 0, 0, 12, 18, 0, 17, 3, 1, 5, 0, 0, 7, 0, 0, 0, 8, 7, 6, 12, 1, 11, 17, 0, 2, 9, 0, 4, 0, 0, 5, 0, 0, 0, 16, 0, 0, 18, 17, 0, 8, 7, 0, 14, 0, 0, 10, 1, 19, 11, 0, 13, 9, 0, 0, 0, 0, 0, 0, 8, 0, 0, 12, 0, 0, 11, 0, 14, 0, 4, 3, 0, 13, 16, 0, 19, 0, 0, 0, 0, 0, 0, 0, 2, 8, 17, 0, 11, 3, 12, 7, 16, 0, 5, 0, 0, 15, 0, 0, 7, 0, 8, 5, 9, 0, 0, 0, 13, 0, 14, 16, 0, 1, 6, 12, 4, 0, 4, 19, 3, 9, 2, 13, 0, 0, 6, 11, 0, 0, 0, 0, 7, 8, 17, 0, 0, 0, 3, 0, 10, 0, 0, 6, 7, 13, 15, 0, 0, 16, 0, 0, 9, 0, 0, 0, 17, 1, 0, 2, 0, 0, 0, 0, 0, 1, 16, 0, 0, 6, 19, 8, 0, 11, 9, 13, 0, 0, 0, 0, 0, 0, 0, 0, 4, 6, 0, 0, 2, 12, 3, 15, 11, 0, 14, 0, 0, 19, 0, 7, 0, 3, 14, 11, 0, 17, 0, 12, 0, 0, 0, 13, 0, 2, 0, 19, 6, 0, 10, 9, 2, 0, 12, 15, 0, 0, 0, 16, 0, 4, 0, 0, 0, 0, 18, 7, 14, 0, 2, 8, 11, 0, 18, 0, 0, 3, 0, 14, 17, 15, 0, 1, 0, 0, 4, 0, 0, 6, 11, 0, 0, 0, 13, 19, 8, 16, 0, 1, 0, 10, 0, 0, 0, 15, 0, 0, 0, 14, 8, 0, 4, 0, 5, 2, 0, 0, 12, 6, 0, 0, 0, 18, 0, 0, 0, 1, 7, 13, 0, 12, 15, 10, 0, 0, 3, 0, 5, 0, 18, 14, 6, 0, 8, 0, 0, 11, 13, 0, 0, 13, 5, 17, 0, 0, 19, 0, 1, 0, 6, 0, 0, 0, 10, 0, 0, 0, 12, 3, 0, 0, 0, 16, 0, 7, 6, 0, 18, 19, 0, 8, 13, 0, 2, 4, 12, 0, 0, 0, 17, 16, 0, 5, 0, 0, 0, 19, 10, 4, 0, 0, 0, 0, 18, 3, 0, 2, 0, 7]);
n = 20;
